c b=8,c=49
p cnf 22 486
1 2 3 4 8 -16 0
2 3 5 7 8 -20 0
3 4 6 8 -21 0
1 2 3 4 -8 16 0
4 5 7 -8 20 0
4 5 7 -8 21 0
1 2 3 7 -15 0
1 3 4 6 7 -19 0
4 5 7 -22 0
3 4 6 -7 8 20 0
8 -22 0
1 2 3 4 6 -7 -8 -20 0
-7 -8 22 0
1 2 3 -7 15 0
1 2 3 4 6 -7 19 0
3 4 6 -7 -21 0
1 2 6 -14 0
1 4 5 6 -18 0
2 3 5 -6 8 -20 0
5 7 8 -21 0
4 5 -6 -8 20 0
4 5 -6 7 19 0
-6 -7 8 21 0
1 3 5 -7 -8 -21 0
2 4 5 -6 -7 -19 0
1 2 -6 14 0
2 4 5 -6 18 0
1 5 -13 0
1 2 3 4 5 -17 0
3 4 6 7 8 -20 0
2 3 6 7 -8 20 0
6 7 -8 21 0
1 3 4 -5 7 -19 0
6 7 -22 0
1 2 3 4 -5 -7 19 0
1 2 3 4 -5 6 18 0
-5 -6 7 8 20 0
-5 -6 7 -8 -20 0
-5 -6 -8 22 0
-5 -6 7 -21 0
3 4 -6 -7 8 -20 0
2 3 -6 -7 -8 20 0
1 3 -5 -6 -8 -21 0
1 2 3 4 -5 -6 -18 0
1 -5 13 0
1 2 3 4 -5 17 0
4 -12 0
1 2 3 -4 8 16 0
1 2 3 -4 5 8 17 0
2 3 -4 6 8 -18 0
5 6 8 -21 0
1 2 3 -4 -8 -16 0
1 2 3 5 -8 -17 0
-4 5 6 -8 18 0
2 5 6 7 -19 0
5 6 -7 8 20 0
5 6 -7 -8 -20 0
5 6 -7 19 0
5 6 -7 -21 0
1 2 3 -4 -6 8 18 0
1 2 3 5 -6 7 8 19 0
-4 5 -6 -8 -18 0
-4 5 7 -8 -19 0
-4 -6 -8 22 0
2 3 -4 5 -6 7 -20 0
-4 -6 7 -21 0
1 2 3 5 -6 -7 8 -19 0
-4 5 -7 -8 19 0
1 3 -4 -6 -8 -21 0
1 2 3 -4 -5 8 -17 0
-4 -5 6 8 -20 0
-4 7 8 -21 0
1 2 3 -5 -8 17 0
-4 -5 6 -8 20 0
-4 -5 6 7 19 0
-4 -5 -7 8 21 0
1 3 -4 -7 -8 -21 0
-4 -5 6 -7 -19 0
3 -4 -5 6 -18 0
-4 -6 7 -8 -20 0
1 2 -5 -6 7 -19 0
1 3 -4 -5 -7 8 -20 0
1 3 -4 -5 -7 -8 20 0
1 3 -5 -6 -7 19 0
1 3 -4 -5 -6 18 0
-4 12 0
3 -11 0
1 2 -3 4 7 8 16 0
1 2 -3 5 7 8 -17 0
4 5 7 8 -20 0
1 2 -3 4 7 -8 -16 0
2 -3 4 5 -8 17 0
1 2 -3 7 15 0
1 2 4 -7 8 -16 0
1 2 4 -7 -8 16 0
1 2 -3 -7 -15 0
2 -3 4 5 -7 17 0
4 5 -6 8 -20 0
-3 7 8 -21 0
-3 4 -7 -8 -21 0
1 2 -3 -5 7 8 17 0
1 2 4 -5 6 7 8 18 0
1 2 -3 4 -5 6 8 -19 0
-3 -5 6 8 -20 0
2 -3 4 -5 -8 -17 0
1 -3 4 6 -8 -18 0
-3 -5 6 7 -8 19 0
-3 -5 6 -8 20 0
-3 -5 -7 8 21 0
2 -3 4 -5 -7 -17 0
1 -3 4 6 -7 -18 0
-3 -5 6 -7 -19 0
1 2 4 -5 -6 7 8 -18 0
2 -3 4 -6 -8 18 0
-3 4 -5 -7 8 -20 0
-3 4 -5 -7 -8 20 0
4 -5 -6 -8 -21 0
2 -3 4 -6 -7 18 0
4 -5 -6 -7 19 0
1 2 -3 -4 7 8 -16 0
-3 -4 6 7 8 -20 0
1 2 -3 -4 7 -8 16 0
-4 6 7 -8 20 0
1 2 -3 -4 5 7 -17 0
-3 -4 5 7 -19 0
1 2 -4 -7 8 16 0
2 -3 -4 5 8 -17 0
1 2 -4 -7 -8 -16 0
2 -3 5 -7 -8 17 0
-3 -4 5 -7 19 0
-3 -4 5 6 18 0
-3 -4 -6 7 8 20 0
2 -3 -4 -6 -7 8 -20 0
2 5 -6 -7 -8 20 0
-4 5 -6 -8 -21 0
-3 -4 5 -6 -18 0
1 2 -3 -4 -5 7 17 0
1 2 -4 -5 6 7 -18 0
2 -3 -4 -5 8 17 0
1 2 -4 -5 6 8 -18 0
2 -3 -5 -7 -8 -17 0
-3 -4 6 -7 -8 18 0
-3 6 -7 -8 -21 0
-3 -4 -5 -6 -8 -20 0
1 2 -4 -5 -6 7 18 0
1 2 -3 -4 -6 7 -19 0
1 2 -4 -5 -6 8 18 0
2 -3 -4 -6 -7 8 19 0
-3 -4 -6 -7 -8 -18 0
1 2 -3 -4 -5 -6 -8 -19 0
2 -3 -4 -5 -6 -7 -20 0
-3 -4 -5 -6 -7 21 0
-3 11 0
2 -10 0
1 -2 4 6 7 8 -16 0
1 -2 4 6 7 -8 16 0
1 -2 3 6 7 15 0
1 3 4 5 6 7 -17 0
1 -2 3 4 -7 8 16 0
3 4 5 8 -17 0
1 -2 3 4 -7 -8 -16 0
-2 3 4 5 -7 -8 17 0
1 -2 3 6 -7 -15 0
1 -2 6 14 0
1 -2 3 4 -6 8 16 0
-2 7 8 -21 0
1 -2 3 4 -6 -8 -16 0
-2 3 4 5 -6 -8 17 0
1 3 -6 7 -15 0
1 -2 3 -7 -8 -21 0
1 3 -6 -7 15 0
3 4 5 -6 -7 -19 0
1 -2 -6 -14 0
3 4 5 -6 18 0
-2 3 6 7 8 -20 0
-2 -5 6 -8 20 0
1 3 4 -5 6 7 17 0
1 3 4 -5 6 7 18 0
1 3 4 -5 8 17 0
3 4 -5 6 8 18 0
3 4 -5 -7 8 19 0
-2 3 4 -5 -7 -8 -17 0
1 -2 4 6 -7 -8 -18 0
1 -2 3 4 -5 6 -8 -19 0
-2 3 4 -5 6 -7 20 0
1 3 4 -5 -6 8 -18 0
-2 3 4 -5 -6 -8 -17 0
-2 3 4 -6 -8 18 0
-2 3 -6 -7 8 -20 0
1 -2 3 -5 -7 -8 20 0
1 -2 -4 6 7 8 16 0
1 3 -4 5 6 7 8 17 0
1 -2 3 -4 5 7 8 -18 0
1 -2 -4 6 7 -8 -16 0
3 -4 5 -8 -17 0
-2 -4 5 7 -19 0
1 -2 3 -4 -7 8 -16 0
1 -2 3 -4 -7 -8 16 0
-2 3 -4 5 -7 -17 0
-2 -4 5 6 -7 18 0
-2 -4 5 -7 19 0
1 -2 3 -4 -6 8 -16 0
-2 -4 -6 7 8 20 0
1 -2 3 -4 -6 -8 16 0
1 3 -4 -6 -7 -8 20 0
-2 3 -4 5 -6 -17 0
-2 -4 5 -6 -18 0
1 3 -4 -5 6 7 8 -17 0
1 3 -4 -5 -8 17 0
1 -2 3 -4 -5 -7 17 0
-2 3 -4 -6 7 -19 0
1 -2 3 -4 -6 -7 19 0
1 -2 3 -4 -5 -6 17 0
1 -2 -3 4 6 8 -16 0
1 -2 -3 4 6 -8 16 0
1 -2 -3 6 7 -15 0
-3 5 6 7 -19 0
1 -2 -3 6 -7 15 0
1 -2 -3 4 5 6 17 0
1 -2 -3 4 6 -18 0
1 -2 -3 4 7 8 -16 0
1 -2 -3 4 7 -8 16 0
1 -3 -6 7 15 0
-2 -3 4 5 7 17 0
-2 -3 4 -6 7 18 0
1 -2 4 -6 -7 8 16 0
-2 -3 4 5 8 17 0
-2 -3 4 -6 8 18 0
4 5 -6 -7 8 -19 0
1 -2 4 -6 -7 -8 -16 0
-2 -3 4 5 -6 -7 -8 -17 0
1 -2 -3 4 5 -7 -8 -18 0
-2 -3 4 5 -6 -8 19 0
-2 4 -7 -8 -21 0
1 -3 -6 -7 -15 0
-2 -3 -5 6 7 19 0
1 -2 -3 4 -5 6 -17 0
1 -2 -3 4 -5 7 -17 0
4 -5 -6 7 -19 0
-2 -3 4 -5 8 -17 0
-2 -3 4 -5 -6 -7 -8 17 0
-2 4 -5 -7 -8 20 0
-2 -3 4 -5 -6 18 0
1 -2 -3 -4 6 8 16 0
1 -3 -4 5 6 8 -17 0
-2 -4 6 7 8 -20 0
1 -2 -3 -4 6 -8 -16 0
-2 -3 -4 5 -8 17 0
1 -2 -3 -4 7 8 16 0
1 -3 -4 5 7 8 -17 0
1 -2 -3 -4 7 -8 -16 0
1 -2 -4 -6 -7 8 -16 0
-2 5 -6 -7 8 -20 0
1 -2 -4 -6 -7 -8 16 0
-3 5 -6 -7 -8 20 0
-2 -3 -4 5 -6 -7 17 0
1 -3 -4 -5 6 8 17 0
1 -2 -3 -5 6 8 -18 0
-2 -3 -4 -5 -8 -17 0
-2 -3 -4 6 -8 18 0
-2 6 -7 -8 -21 0
-2 -3 -4 -5 -7 -19 0
1 -3 -4 -5 7 8 17 0
1 -2 -3 -5 -6 7 8 18 0
1 -2 -3 -4 -5 -6 8 -19 0
-2 -3 -4 -5 -6 8 20 0
-2 -3 -4 -6 -8 -18 0
-2 -3 -4 -5 7 -8 19 0
-2 -3 -4 -5 -6 -7 -17 0
-2 -3 -4 -6 -7 -18 0
-2 10 0
1 -9 0
2 3 4 5 6 8 -16 0
2 3 4 5 6 -8 16 0
-1 3 5 6 7 -15 0
2 3 4 6 7 -19 0
-1 3 5 6 -7 15 0
-1 2 5 6 14 0
2 3 4 5 6 -17 0
2 4 5 6 -18 0
2 3 4 7 8 -16 0
-1 7 8 -21 0
2 3 4 7 -8 16 0
-1 2 3 -6 7 15 0
2 3 4 5 7 -17 0
-1 2 3 4 -6 -7 8 16 0
-1 2 3 4 -6 -7 -8 -16 0
-1 2 4 5 -6 -7 -8 17 0
-1 2 3 -7 -8 -21 0
-1 2 3 -6 -7 -15 0
-1 2 5 -6 -14 0
-1 5 13 0
-1 6 7 8 -20 0
-1 -5 6 -8 20 0
-1 2 3 -5 7 15 0
2 3 4 -5 7 17 0
2 3 4 -5 6 7 18 0
2 3 4 -5 7 -19 0
-1 2 3 4 -5 -7 8 16 0
2 3 4 -5 8 17 0
-1 2 3 4 -5 -7 -8 -16 0
-1 2 4 -5 -7 -8 -17 0
-1 2 4 6 -7 -8 -18 0
-1 2 3 4 -5 6 -8 -19 0
-1 2 3 -5 -7 -15 0
-1 3 4 -5 6 -7 20 0
2 -5 6 -14 0
2 3 4 -5 -6 7 -18 0
2 3 4 -5 -6 8 -18 0
-1 2 -6 -7 8 -20 0
-1 2 4 -6 -7 -8 18 0
-1 2 3 -5 -7 -8 20 0
2 3 -5 -6 -8 -21 0
2 3 -5 -6 -7 19 0
2 -5 -6 14 0
-1 -5 -13 0
2 3 -4 5 6 8 16 0
2 3 -4 5 6 8 17 0
2 3 -4 5 6 -8 -16 0
-1 6 7 -8 20 0
-1 5 6 7 -19 0
-1 -4 5 -7 19 0
2 3 -4 7 8 16 0
2 3 -4 5 7 8 17 0
2 3 -4 -6 7 8 18 0
-1 2 3 -4 5 -6 8 19 0
2 3 -4 7 -8 -16 0
-1 2 3 -4 -6 -7 8 -16 0
-1 2 3 -4 -6 -7 -8 16 0
2 3 -4 -6 -8 -21 0
-1 3 -4 5 -6 -7 -17 0
-1 -4 5 -6 -7 -18 0
2 3 -4 -5 7 8 -17 0
2 3 -4 -5 -8 17 0
-1 2 3 -4 -5 -7 8 -16 0
-1 2 3 -4 -5 -7 -8 16 0
-1 2 3 -4 -5 -7 17 0
-1 3 -5 -6 7 -19 0
-1 2 -4 -5 -7 8 -20 0
-1 2 3 -4 -6 -7 19 0
2 3 -4 -5 -6 18 0
2 -3 4 5 6 7 8 16 0
-1 2 -3 4 6 7 8 -17 0
2 -3 4 5 6 7 -8 -16 0
-1 -3 5 6 7 15 0
2 -3 4 -7 8 -16 0
2 -3 4 -7 -8 16 0
-1 -3 5 6 -7 -15 0
-1 2 -3 4 6 -18 0
-1 2 -3 4 -6 8 -16 0
-1 2 -3 4 -6 -8 16 0
-1 2 -3 -6 7 -15 0
-1 4 -7 -8 -21 0
-1 2 -3 -6 -7 15 0
-1 2 -3 4 5 -6 17 0
-1 2 -3 4 -6 18 0
-1 2 -3 4 -5 8 -16 0
-1 2 -3 4 -5 -8 16 0
-1 2 -3 -5 7 -15 0
-1 -3 -5 6 7 19 0
-1 2 -3 -5 -7 15 0
-1 2 -3 -5 -7 8 -20 0
-1 4 -5 -7 -8 20 0
-1 2 -3 4 -5 -17 0
2 -3 -4 5 6 7 8 -16 0
2 -3 -4 5 6 7 -8 16 0
2 -3 -4 5 6 7 -17 0
2 -3 -4 -7 8 16 0
2 -3 -4 -7 -8 -16 0
-1 2 -3 -4 -6 8 16 0
-1 2 -3 -4 -6 -8 -16 0
-1 2 -3 5 -6 -8 17 0
-1 5 -6 -7 -8 20 0
-1 2 -3 -4 -5 8 16 0
-1 2 -3 -5 6 8 -18 0
-1 2 -3 -4 -5 -8 -16 0
-1 2 -3 -5 -8 -17 0
-1 -3 -4 6 -8 18 0
-1 6 -7 -8 -21 0
-1 2 -3 -5 -6 8 18 0
2 -3 -4 -6 7 8 -19 0
-1 -3 -4 -6 -8 -18 0
-1 -3 -4 -5 7 -8 19 0
-1 2 -4 -6 -7 8 19 0
-1 -3 -4 -5 -7 -8 -19 0
-1 -2 3 4 5 8 16 0
-1 -2 3 5 8 -17 0
-1 -2 3 4 5 -8 -16 0
-1 -2 3 4 5 -8 17 0
-1 -2 3 5 7 -15 0
-1 -2 3 5 -7 15 0
-1 -2 5 6 -14 0
3 4 5 6 -18 0
-1 -2 5 -6 14 0
-1 -2 3 4 6 8 16 0
-1 -2 3 -5 6 8 17 0
3 4 -5 7 8 -19 0
-1 -2 3 4 6 -8 -16 0
-1 -2 3 4 -5 -8 -17 0
-1 -2 3 4 6 -8 -18 0
-1 -2 -5 6 7 -8 19 0
-1 -2 3 6 7 -15 0
-1 -2 -5 6 -7 -8 -19 0
-1 -2 3 6 -7 15 0
-2 -5 6 14 0
-1 -2 3 4 7 8 16 0
-1 -2 3 -5 7 8 17 0
3 4 -5 -6 7 8 -18 0
-1 -2 3 4 7 -8 -16 0
-1 3 -5 -6 7 15 0
-1 -2 3 4 -5 -6 -7 8 -16 0
-1 3 -6 -7 8 -20 0
-1 -2 3 4 -5 -6 -7 -8 16 0
-1 3 -5 -6 -7 -15 0
-1 -2 3 4 -5 -6 -7 -17 0
-1 -2 3 4 -6 -7 18 0
-2 -5 -6 -14 0
-1 -2 3 -4 5 8 -16 0
-1 -2 3 -4 5 -8 16 0
-1 -2 -4 5 6 18 0
-1 -2 3 -4 5 -17 0
-1 -2 3 -4 6 8 -16 0
-1 -2 3 -4 6 -8 16 0
-1 -2 3 -4 -5 6 17 0
-1 -2 3 -4 7 8 -16 0
-1 -2 3 -4 7 -8 16 0
-1 -2 -4 -5 -6 -8 -20 0
-1 -2 3 -4 -5 7 17 0
3 -4 -5 -6 7 18 0
-1 -2 3 -4 -5 -6 -7 8 16 0
-1 -2 3 -4 -5 8 17 0
3 -4 -5 -6 8 18 0
-1 3 -4 -6 -7 8 19 0
-1 -2 3 -4 -5 -6 -7 -8 -16 0
-1 -2 3 -4 -6 -7 -8 -17 0
-1 -2 3 -4 -5 -7 -8 -18 0
-1 -2 3 -4 -5 -6 -8 -19 0
-1 -2 3 -4 -5 -6 -7 -20 0
-1 -2 -4 -5 -6 -7 21 0
-2 -3 4 5 7 8 -16 0
-2 -3 4 5 7 -8 16 0
-1 -2 -3 5 7 15 0
-1 -3 4 6 7 -18 0
-1 -2 -3 4 -7 8 16 0
-1 -3 4 6 8 -18 0
-1 -2 -3 4 -7 -8 -16 0
-1 -2 -3 4 5 -7 -8 -17 0
-1 -2 -3 5 6 -7 -8 18 0
-1 -2 -3 5 -7 -15 0
-1 -3 4 -6 7 18 0
-1 -3 4 -6 8 18 0
-1 -2 -3 5 -6 -7 -8 -18 0
-2 -3 4 6 7 8 -16 0
-2 -3 4 6 7 -8 16 0
-1 -2 -3 6 7 15 0
-1 -3 4 -5 6 7 -17 0
-1 -3 4 -5 8 -17 0
-1 -2 -3 4 -5 -7 -8 17 0
-1 -2 -3 6 -7 -15 0
-1 -3 4 -5 6 -18 0
-1 -2 -3 4 -5 -6 8 16 0
-1 -2 -3 4 -5 -6 -8 -16 0
-1 -2 -3 4 -5 -6 -8 17 0
-1 -3 -5 -6 7 -15 0
-1 -3 -5 -6 -7 15 0
-1 -3 4 -5 -6 18 0
-2 -3 -4 5 7 8 16 0
-1 -2 -4 5 7 8 -17 0
-2 -3 -4 5 7 -8 -16 0
-1 -2 -3 -4 -7 8 -16 0
-1 -2 -3 -4 -7 -8 16 0
-1 -2 -3 -4 5 -7 17 0
-1 5 -6 -7 8 -20 0
-1 -2 -3 -4 -6 -18 0
-2 -3 -4 6 7 8 16 0
-1 -2 -4 -5 6 7 8 17 0
-1 -2 -3 -4 -5 7 8 -18 0
-2 -3 -4 6 7 -8 -16 0
-1 -3 -4 -5 -8 -17 0
-1 -2 -3 -4 -5 7 19 0
-1 -2 -3 -4 -5 -7 -17 0
-1 -2 -3 -4 6 -7 18 0
-1 -2 -3 -4 -5 -6 8 -16 0
-1 -2 -3 -4 -5 -6 -8 16 0
-1 -2 -3 -4 -5 -6 -17 0
-1 9 0
